
  12    4
  10   10   10   10

   0   0   0   0   0   3 2 3 4 
   6  10  10  10  10   3 11 6 5 
   1  10  10  10  10   3 10 9 7 
   8  10  10  10  10   3 10 9 7 
   3  10  10  10  10   3 10 9 8 
   1  10  10  10  10   2 9 7 
  10  10  10  10  10   1 8 
   5  10  10  10  10   1 12
   9  10  10  10  10   1 12
   6  10  10  10  10   1 12
   1  10  10  10  10   1 12
   0   0   0   0   0   0 
